DIMACS_lns/graph-1000-874.col
p edge 1000 1786
e 1 661
e 1 657
e 1 53
e 1 398
e 1 706
e 1 317
e 2 570
e 2 13
e 2 374
e 2 326
e 2 619
e 2 202
e 3 113
e 3 744
e 3 278
e 3 819
e 3 829
e 4 433
e 4 34
e 4 958
e 4 626
e 5 418
e 5 429
e 5 477
e 5 171
e 5 15
e 6 238
e 6 42
e 6 988
e 6 753
e 7 126
e 7 572
e 7 278
e 7 407
e 10 367
e 10 110
e 10 326
e 11 911
e 11 383
e 11 133
e 11 832
e 11 413
e 12 524
e 12 150
e 12 314
e 12 101
e 12 780
e 12 300
e 12 353
e 13 191
e 13 728
e 14 370
e 14 220
e 14 364
e 14 33
e 14 490
e 15 295
e 15 691
e 15 599
e 15 903
e 16 175
e 16 353
e 16 197
e 16 298
e 16 335
e 16 196
e 17 46
e 17 122
e 17 719
e 17 696
e 17 537
e 17 198
e 17 905
e 18 32
e 18 185
e 18 96
e 18 408
e 19 317
e 19 662
e 19 405
e 19 824
e 21 790
e 21 617
e 21 706
e 22 469
e 22 956
e 22 829
e 22 295
e 22 843
e 22 595
e 22 592
e 23 912
e 23 295
e 23 536
e 23 698
e 23 959
e 23 897
e 23 920
e 24 882
e 24 234
e 24 124
e 26 49
e 26 405
e 26 720
e 26 933
e 26 153
e 26 242
e 26 249
e 26 658
e 27 88
e 27 585
e 27 693
e 27 203
e 29 925
e 29 131
e 29 183
e 29 428
e 29 120
e 29 128
e 31 878
e 31 330
e 31 219
e 32 347
e 32 818
e 32 300
e 32 274
e 32 851
e 32 801
e 32 353
e 33 774
e 33 136
e 33 249
e 33 509
e 33 572
e 34 864
e 34 801
e 34 699
e 34 603
e 34 178
e 34 931
e 36 435
e 36 873
e 36 79
e 36 770
e 36 372
e 37 466
e 37 599
e 37 345
e 37 937
e 37 214
e 38 917
e 38 687
e 38 663
e 38 291
e 39 716
e 39 987
e 39 368
e 39 81
e 39 174
e 39 226
e 39 655
e 41 53
e 41 42
e 41 114
e 41 539
e 41 101
e 41 959
e 41 428
e 42 545
e 42 387
e 42 952
e 42 795
e 42 513
e 43 597
e 43 301
e 43 842
e 43 653
e 44 790
e 44 267
e 44 134
e 44 983
e 44 618
e 45 284
e 45 61
e 45 375
e 45 835
e 45 794
e 46 643
e 46 941
e 46 737
e 46 67
e 46 662
e 46 491
e 48 139
e 48 353
e 48 912
e 49 811
e 49 358
e 50 787
e 50 301
e 50 782
e 50 824
e 51 670
e 51 58
e 51 380
e 51 286
e 51 122
e 52 117
e 52 378
e 52 579
e 52 228
e 52 799
e 53 352
e 53 856
e 57 127
e 57 391
e 57 645
e 57 627
e 57 203
e 57 876
e 58 429
e 58 486
e 58 936
e 58 304
e 59 998
e 59 307
e 59 827
e 59 921
e 59 414
e 59 113
e 60 149
e 60 983
e 60 130
e 61 987
e 61 302
e 61 554
e 61 90
e 63 844
e 63 236
e 63 380
e 63 670
e 65 103
e 65 318
e 65 295
e 67 843
e 67 665
e 67 977
e 67 307
e 67 183
e 68 220
e 68 665
e 68 351
e 69 926
e 69 950
e 69 678
e 69 654
e 70 497
e 70 97
e 70 282
e 70 489
e 72 309
e 72 86
e 72 584
e 72 347
e 72 510
e 72 882
e 72 435
e 72 353
e 72 458
e 73 951
e 73 963
e 73 493
e 73 236
e 74 953
e 74 864
e 74 485
e 74 582
e 77 432
e 77 164
e 77 535
e 77 968
e 77 363
e 77 976
e 78 753
e 78 963
e 78 511
e 78 277
e 79 139
e 79 869
e 79 354
e 80 427
e 80 934
e 80 331
e 81 139
e 81 701
e 81 301
e 82 586
e 82 508
e 82 702
e 82 447
e 83 179
e 83 653
e 83 773
e 83 155
e 83 567
e 83 709
e 84 554
e 84 242
e 84 179
e 84 726
e 84 313
e 84 380
e 85 398
e 85 167
e 85 281
e 85 815
e 85 965
e 85 309
e 86 536
e 86 725
e 86 739
e 88 98
e 88 119
e 89 188
e 89 724
e 89 513
e 90 403
e 90 687
e 90 334
e 90 805
e 90 247
e 91 670
e 91 684
e 91 378
e 91 335
e 91 937
e 91 806
e 92 202
e 92 599
e 92 643
e 92 854
e 92 185
e 92 138
e 92 450
e 92 293
e 94 399
e 94 770
e 94 348
e 94 381
e 94 304
e 96 714
e 96 819
e 97 764
e 97 298
e 97 337
e 97 884
e 98 281
e 98 634
e 98 479
e 98 536
e 99 532
e 99 198
e 99 992
e 99 222
e 100 654
e 100 105
e 100 307
e 100 136
e 101 550
e 101 681
e 102 944
e 102 801
e 102 774
e 102 366
e 102 789
e 102 637
e 103 157
e 103 738
e 103 709
e 103 716
e 103 763
e 104 433
e 104 872
e 104 848
e 105 738
e 105 345
e 105 431
e 107 466
e 107 265
e 107 238
e 108 889
e 108 541
e 108 986
e 108 337
e 108 707
e 108 331
e 109 738
e 109 397
e 109 387
e 110 236
e 110 605
e 110 545
e 110 614
e 110 868
e 110 303
e 111 458
e 111 994
e 111 246
e 112 376
e 112 522
e 112 434
e 112 368
e 112 322
e 112 432
e 113 567
e 113 526
e 113 421
e 114 314
e 114 975
e 117 344
e 117 210
e 117 608
e 117 475
e 117 211
e 118 397
e 118 906
e 118 166
e 119 250
e 119 894
e 120 584
e 120 726
e 120 437
e 122 897
e 122 517
e 122 304
e 123 604
e 123 635
e 123 967
e 124 625
e 124 743
e 125 333
e 125 498
e 125 773
e 125 703
e 125 837
e 126 316
e 126 380
e 126 858
e 126 222
e 126 303
e 127 309
e 127 780
e 127 485
e 127 396
e 127 760
e 127 136
e 127 795
e 127 169
e 128 738
e 128 452
e 128 971
e 128 377
e 128 998
e 128 709
e 128 404
e 129 751
e 129 533
e 129 246
e 129 299
e 129 366
e 129 456
e 129 179
e 130 702
e 130 160
e 130 930
e 130 211
e 131 466
e 131 257
e 131 254
e 131 545
e 131 736
e 132 644
e 132 328
e 132 828
e 133 595
e 133 890
e 133 369
e 133 507
e 134 150
e 134 314
e 134 298
e 134 625
e 134 702
e 134 877
e 135 358
e 135 430
e 135 776
e 135 195
e 135 799
e 135 409
e 135 332
e 136 627
e 136 406
e 136 588
e 136 432
e 137 407
e 137 729
e 137 357
e 137 253
e 137 247
e 137 382
e 137 765
e 137 795
e 138 746
e 138 463
e 138 906
e 138 914
e 138 757
e 139 675
e 139 976
e 139 402
e 140 166
e 140 330
e 140 657
e 141 964
e 141 326
e 141 909
e 141 922
e 142 318
e 142 164
e 142 308
e 143 803
e 143 376
e 143 963
e 147 539
e 147 924
e 147 719
e 147 883
e 148 908
e 148 665
e 148 255
e 149 381
e 149 236
e 149 617
e 149 696
e 149 420
e 150 915
e 150 226
e 150 578
e 150 682
e 151 885
e 151 617
e 151 242
e 151 458
e 151 269
e 151 905
e 151 508
e 151 348
e 151 774
e 153 912
e 153 562
e 153 710
e 153 344
e 154 643
e 154 645
e 154 941
e 154 480
e 155 426
e 155 998
e 157 210
e 157 897
e 158 417
e 158 592
e 158 672
e 158 365
e 158 408
e 160 424
e 160 813
e 160 604
e 164 684
e 164 165
e 165 897
e 165 439
e 165 486
e 165 269
e 166 264
e 166 456
e 166 681
e 166 701
e 167 731
e 167 336
e 167 546
e 168 657
e 168 494
e 168 180
e 168 195
e 168 700
e 168 463
e 168 226
e 169 635
e 169 374
e 169 967
e 169 663
e 171 686
e 171 674
e 171 454
e 171 544
e 171 954
e 171 728
e 171 870
e 172 992
e 172 987
e 172 704
e 172 313
e 172 896
e 172 318
e 172 429
e 174 751
e 174 214
e 174 634
e 174 815
e 175 360
e 175 740
e 178 824
e 178 378
e 179 202
e 179 981
e 179 400
e 179 189
e 180 565
e 180 846
e 180 672
e 183 922
e 183 603
e 183 282
e 184 517
e 184 722
e 184 618
e 184 374
e 185 532
e 185 447
e 185 857
e 186 487
e 186 936
e 186 521
e 187 430
e 187 404
e 187 395
e 188 295
e 188 275
e 188 829
e 189 583
e 189 475
e 189 872
e 189 657
e 191 607
e 191 452
e 191 643
e 191 876
e 191 582
e 191 515
e 191 659
e 192 397
e 192 383
e 192 726
e 193 915
e 193 882
e 193 726
e 195 689
e 196 757
e 196 891
e 196 942
e 197 490
e 197 704
e 197 224
e 197 344
e 198 916
e 198 724
e 198 873
e 198 424
e 198 870
e 199 261
e 199 819
e 199 502
e 199 346
e 200 249
e 200 830
e 200 539
e 202 240
e 202 563
e 203 452
e 203 389
e 203 592
e 205 637
e 205 657
e 205 463
e 205 834
e 205 457
e 207 401
e 207 208
e 207 257
e 207 397
e 207 843
e 207 511
e 208 645
e 208 572
e 208 767
e 208 479
e 210 211
e 211 502
e 211 516
e 211 453
e 212 989
e 212 307
e 212 902
e 212 955
e 213 449
e 213 815
e 213 346
e 214 987
e 214 454
e 214 446
e 214 905
e 214 368
e 218 336
e 218 829
e 218 584
e 218 533
e 219 995
e 219 540
e 220 744
e 220 605
e 220 520
e 220 869
e 220 401
e 221 980
e 221 358
e 221 828
e 222 925
e 222 367
e 222 769
e 222 355
e 222 354
e 222 775
e 223 866
e 223 395
e 223 728
e 224 726
e 224 914
e 224 386
e 224 413
e 226 289
e 226 358
e 228 486
e 228 839
e 228 239
e 230 236
e 230 878
e 230 961
e 231 340
e 231 921
e 231 268
e 233 622
e 233 657
e 233 733
e 233 614
e 233 451
e 233 867
e 234 515
e 234 685
e 235 684
e 235 643
e 235 353
e 236 758
e 236 699
e 236 446
e 236 283
e 238 864
e 238 920
e 239 246
e 239 370
e 239 809
e 240 392
e 240 987
e 240 855
e 240 946
e 240 300
e 240 419
e 240 719
e 241 442
e 241 989
e 241 801
e 242 734
e 242 963
e 242 628
e 242 368
e 246 921
e 246 998
e 246 765
e 247 342
e 247 690
e 249 985
e 250 434
e 250 790
e 250 469
e 250 449
e 251 531
e 251 975
e 251 971
e 251 425
e 251 409
e 251 979
e 253 289
e 253 790
e 253 537
e 253 328
e 253 447
e 254 962
e 254 675
e 255 367
e 255 717
e 255 257
e 255 761
e 257 365
e 258 334
e 258 924
e 258 971
e 258 722
e 258 934
e 261 590
e 261 753
e 261 780
e 261 629
e 262 956
e 262 730
e 262 369
e 262 814
e 264 758
e 264 452
e 265 608
e 265 326
e 265 322
e 266 475
e 266 382
e 266 459
e 266 652
e 266 497
e 267 681
e 267 387
e 268 334
e 268 806
e 268 393
e 269 934
e 269 582
e 269 348
e 269 307
e 272 498
e 272 676
e 272 550
e 272 520
e 273 629
e 273 496
e 273 806
e 274 398
e 274 899
e 275 704
e 275 406
e 275 746
e 276 972
e 276 440
e 276 716
e 277 981
e 277 382
e 278 303
e 278 881
e 281 837
e 281 574
e 281 864
e 281 655
e 281 879
e 282 568
e 282 922
e 282 709
e 283 523
e 283 495
e 284 458
e 284 965
e 284 665
e 286 506
e 286 985
e 286 346
e 289 438
e 289 884
e 289 535
e 289 930
e 291 874
e 291 298
e 291 629
e 291 547
e 293 781
e 293 387
e 293 690
e 293 399
e 293 881
e 293 760
e 293 485
e 293 971
e 294 511
e 294 964
e 294 408
e 295 789
e 295 788
e 295 676
e 295 595
e 298 891
e 298 878
e 298 419
e 299 385
e 299 422
e 300 363
e 301 451
e 302 513
e 302 891
e 302 643
e 303 498
e 304 634
e 304 537
e 304 739
e 305 825
e 305 815
e 305 439
e 305 878
e 307 869
e 307 767
e 307 872
e 308 801
e 308 345
e 308 563
e 310 867
e 310 389
e 310 446
e 312 370
e 312 683
e 312 894
e 312 377
e 312 491
e 312 844
e 312 353
e 313 414
e 313 786
e 314 601
e 314 410
e 314 904
e 316 346
e 316 481
e 316 483
e 316 980
e 316 989
e 316 707
e 316 874
e 317 405
e 317 815
e 318 322
e 318 377
e 318 486
e 318 372
e 318 872
e 318 648
e 318 376
e 321 597
e 321 778
e 321 743
e 321 494
e 322 802
e 322 448
e 322 496
e 323 519
e 323 479
e 323 345
e 325 400
e 325 829
e 325 489
e 325 744
e 326 747
e 326 828
e 327 746
e 327 796
e 327 532
e 328 950
e 328 471
e 328 535
e 329 483
e 329 435
e 329 335
e 329 378
e 330 382
e 330 757
e 330 649
e 330 652
e 330 354
e 330 702
e 330 911
e 330 952
e 330 604
e 331 678
e 331 665
e 331 882
e 332 749
e 332 702
e 332 819
e 333 530
e 333 341
e 334 669
e 334 486
e 335 477
e 335 857
e 335 778
e 335 464
e 336 348
e 336 798
e 337 578
e 337 590
e 338 976
e 338 547
e 338 776
e 339 359
e 339 740
e 339 588
e 339 848
e 340 572
e 340 471
e 340 408
e 341 630
e 341 779
e 341 867
e 341 729
e 341 782
e 342 451
e 342 628
e 344 347
e 344 902
e 344 887
e 345 422
e 345 893
e 346 596
e 346 977
e 347 413
e 347 690
e 347 630
e 348 595
e 348 547
e 351 742
e 351 690
e 351 915
e 352 936
e 352 399
e 352 490
e 353 950
e 353 653
e 353 663
e 353 458
e 354 777
e 354 471
e 354 849
e 354 764
e 354 942
e 355 393
e 355 572
e 357 558
e 357 494
e 357 567
e 357 530
e 357 541
e 358 536
e 358 486
e 359 672
e 359 915
e 359 883
e 359 509
e 360 402
e 360 856
e 360 999
e 360 408
e 362 745
e 362 775
e 362 590
e 363 396
e 363 814
e 364 578
e 364 995
e 364 635
e 365 565
e 365 704
e 365 453
e 365 370
e 366 981
e 367 416
e 367 981
e 367 493
e 367 427
e 367 580
e 367 890
e 369 795
e 369 526
e 369 986
e 370 801
e 370 395
e 370 809
e 370 424
e 371 607
e 371 818
e 371 540
e 372 908
e 372 940
e 374 418
e 374 626
e 374 668
e 375 683
e 375 798
e 375 605
e 376 861
e 376 629
e 377 653
e 377 827
e 378 834
e 378 403
e 378 751
e 378 767
e 380 498
e 381 676
e 381 872
e 382 453
e 383 707
e 383 391
e 385 596
e 385 556
e 385 687
e 385 992
e 386 757
e 386 511
e 386 985
e 387 994
e 387 791
e 387 739
e 389 947
e 389 681
e 389 468
e 391 844
e 391 773
e 392 413
e 392 665
e 392 562
e 393 744
e 393 696
e 393 679
e 395 477
e 395 419
e 395 731
e 395 622
e 396 425
e 396 946
e 397 640
e 397 626
e 397 856
e 397 967
e 397 523
e 397 924
e 398 689
e 399 597
e 400 724
e 400 493
e 401 796
e 401 521
e 401 561
e 401 518
e 402 489
e 402 858
e 403 408
e 403 976
e 404 944
e 404 597
e 406 637
e 406 965
e 407 709
e 407 547
e 408 531
e 409 701
e 409 953
e 410 794
e 410 914
e 411 580
e 411 917
e 411 854
e 411 987
e 411 896
e 414 765
e 414 634
e 416 597
e 416 661
e 417 661
e 417 541
e 418 879
e 418 520
e 418 442
e 419 701
e 419 824
e 419 689
e 419 884
e 420 717
e 420 903
e 421 797
e 421 757
e 421 948
e 421 858
e 421 604
e 421 682
e 422 471
e 422 480
e 422 523
e 422 459
e 424 962
e 424 832
e 424 786
e 424 661
e 425 753
e 426 432
e 426 572
e 427 963
e 427 700
e 428 887
e 429 601
e 429 912
e 430 872
e 430 893
e 431 666
e 431 967
e 431 893
e 432 496
e 432 956
e 432 649
e 432 685
e 432 909
e 432 908
e 433 803
e 434 580
e 434 934
e 434 935
e 435 848
e 435 784
e 437 985
e 437 824
e 437 742
e 438 449
e 438 625
e 438 685
e 438 764
e 439 640
e 439 952
e 440 519
e 440 523
e 440 731
e 440 745
e 440 550
e 440 516
e 442 510
e 442 927
e 442 889
e 444 519
e 444 930
e 444 691
e 446 975
e 446 761
e 446 927
e 447 599
e 448 579
e 448 814
e 449 674
e 449 982
e 449 547
e 449 894
e 450 931
e 450 935
e 451 978
e 453 714
e 454 801
e 454 604
e 454 869
e 454 946
e 456 778
e 456 931
e 456 784
e 456 897
e 457 798
e 457 915
e 458 990
e 458 978
e 458 705
e 459 641
e 459 789
e 459 753
e 459 963
e 459 479
e 463 814
e 463 870
e 464 541
e 464 973
e 464 829
e 466 471
e 466 597
e 466 683
e 466 794
e 468 518
e 468 696
e 468 749
e 468 864
e 468 814
e 469 826
e 471 904
e 471 533
e 471 940
e 475 806
e 475 774
e 475 878
e 477 726
e 477 730
e 479 578
e 480 672
e 480 675
e 480 709
e 481 521
e 481 561
e 483 894
e 483 908
e 487 824
e 487 670
e 489 507
e 489 617
e 490 980
e 490 578
e 490 717
e 490 876
e 491 685
e 491 545
e 491 668
e 493 601
e 493 948
e 493 922
e 494 826
e 494 791
e 495 751
e 495 665
e 495 567
e 496 533
e 497 746
e 497 565
e 498 794
e 499 922
e 499 765
e 499 506
e 499 745
e 501 824
e 501 703
e 501 740
e 502 988
e 506 706
e 507 962
e 507 758
e 507 563
e 507 791
e 507 690
e 508 627
e 509 528
e 509 562
e 510 1000
e 510 690
e 511 743
e 511 811
e 511 769
e 512 623
e 512 882
e 512 846
e 512 699
e 513 882
e 513 846
e 513 544
e 514 982
e 514 894
e 514 551
e 514 618
e 514 670
e 515 744
e 516 799
e 516 802
e 517 955
e 517 665
e 518 528
e 518 787
e 520 623
e 520 962
e 521 950
e 521 782
e 522 952
e 522 976
e 523 597
e 523 948
e 524 861
e 524 874
e 526 547
e 528 922
e 528 635
e 528 879
e 530 557
e 530 546
e 530 645
e 531 563
e 531 828
e 531 925
e 532 973
e 533 714
e 535 779
e 535 597
e 536 807
e 537 967
e 540 737
e 540 865
e 541 940
e 541 899
e 541 757
e 544 720
e 544 615
e 545 791
e 546 934
e 546 859
e 547 554
e 550 635
e 550 807
e 550 817
e 550 789
e 551 981
e 551 619
e 551 672
e 551 767
e 553 811
e 553 985
e 553 965
e 554 809
e 554 837
e 556 833
e 556 841
e 557 684
e 557 693
e 557 658
e 557 832
e 558 977
e 558 653
e 561 654
e 561 622
e 562 563
e 563 751
e 563 972
e 563 891
e 564 747
e 564 653
e 564 835
e 567 706
e 567 774
e 568 848
e 568 893
e 570 774
e 570 633
e 570 849
e 574 630
e 574 665
e 574 877
e 576 805
e 576 802
e 576 890
e 578 828
e 578 890
e 579 662
e 580 899
e 580 985
e 580 666
e 582 820
e 582 763
e 583 824
e 583 744
e 583 730
e 584 933
e 584 763
e 585 784
e 585 835
e 585 914
e 586 668
e 586 751
e 586 707
e 588 834
e 588 737
e 590 936
e 590 655
e 590 686
e 592 946
e 592 855
e 592 851
e 592 933
e 595 887
e 596 645
e 596 794
e 597 736
e 597 601
e 599 906
e 599 828
e 599 826
e 601 776
e 601 763
e 603 989
e 603 797
e 605 976
e 605 891
e 605 942
e 607 661
e 607 958
e 608 733
e 608 789
e 610 901
e 610 680
e 610 720
e 614 987
e 615 971
e 615 857
e 618 731
e 618 709
e 618 672
e 619 805
e 622 699
e 623 830
e 623 740
e 625 867
e 625 856
e 625 842
e 626 893
e 627 968
e 628 644
e 628 814
e 628 690
e 628 890
e 629 874
e 630 833
e 630 901
e 630 925
e 630 659
e 630 883
e 630 872
e 630 817
e 633 893
e 633 673
e 634 894
e 634 770
e 640 648
e 640 786
e 640 808
e 641 802
e 641 816
e 643 992
e 643 702
e 644 835
e 644 691
e 645 819
e 645 686
e 645 942
e 648 663
e 648 791
e 649 689
e 652 761
e 652 677
e 652 685
e 654 724
e 655 673
e 655 777
e 657 937
e 658 908
e 658 802
e 658 924
e 659 859
e 659 714
e 662 927
e 663 891
e 666 854
e 666 761
e 666 865
e 666 979
e 666 833
e 668 793
e 669 774
e 669 712
e 670 740
e 670 885
e 673 972
e 673 912
e 673 999
e 674 819
e 674 973
e 677 788
e 677 1000
e 678 781
e 679 901
e 679 691
e 679 817
e 679 712
e 680 940
e 680 954
e 680 992
e 681 975
e 682 912
e 683 844
e 683 986
e 684 793
e 685 779
e 685 889
e 689 838
e 690 927
e 693 719
e 696 729
e 696 789
e 698 801
e 698 905
e 699 734
e 699 824
e 699 868
e 700 839
e 701 980
e 701 839
e 701 912
e 702 902
e 702 788
e 703 953
e 705 841
e 705 889
e 706 737
e 707 942
e 707 725
e 709 981
e 709 814
e 709 769
e 710 856
e 710 846
e 710 712
e 712 951
e 714 926
e 714 922
e 714 854
e 714 825
e 716 760
e 716 849
e 717 816
e 719 885
e 722 901
e 722 758
e 724 968
e 725 775
e 725 961
e 725 737
e 725 803
e 726 904
e 726 910
e 728 951
e 728 908
e 729 813
e 729 799
e 729 798
e 733 903
e 734 865
e 736 787
e 739 808
e 740 817
e 740 955
e 742 920
e 744 752
e 747 884
e 749 802
e 751 760
e 751 912
e 752 789
e 752 896
e 760 816
e 761 805
e 763 782
e 765 789
e 765 920
e 767 773
e 767 814
e 769 967
e 773 838
e 773 827
e 776 859
e 776 967
e 777 873
e 779 868
e 780 798
e 780 983
e 781 1000
e 781 927
e 788 955
e 789 905
e 793 910
e 796 958
e 797 955
e 797 926
e 798 830
e 801 990
e 801 833
e 802 927
e 803 951
e 803 904
e 806 835
e 806 962
e 807 838
e 807 848
e 808 877
e 808 973
e 808 992
e 809 826
e 813 890
e 815 982
e 815 978
e 816 934
e 816 827
e 818 935
e 819 911
e 820 829
e 820 972
e 820 952
e 824 986
e 825 842
e 827 955
e 827 887
e 828 953
e 829 973
e 835 887
e 835 841
e 842 854
e 849 876
e 849 878
e 851 879
e 854 868
e 855 856
e 855 894
e 856 879
e 857 926
e 858 936
e 858 878
e 861 873
e 864 921
e 866 916
e 866 983
e 869 964
e 873 925
e 877 961
e 881 909
e 882 944
e 884 894
e 887 963
e 889 941
e 890 916
e 891 976
e 893 906
e 893 933
e 897 947
e 897 946
e 902 999
e 904 956
e 910 990
e 914 994
e 917 959
e 920 975
e 921 975
e 924 927
e 933 979
e 942 947
e 947 956
e 954 995
e 956 999
e 963 990
e 980 987
e 987 999
e 988 1000
