txt_Ins/graph-1000-874.txt
n 1000
e 0 660
e 0 656
e 0 52
e 0 397
e 0 705
e 0 316
e 1 569
e 1 12
e 1 373
e 1 325
e 1 618
e 1 201
e 2 112
e 2 743
e 2 277
e 2 818
e 2 828
e 3 432
e 3 33
e 3 957
e 3 625
e 4 417
e 4 428
e 4 476
e 4 170
e 4 14
e 5 237
e 5 41
e 5 987
e 5 752
e 6 125
e 6 571
e 6 277
e 6 406
e 9 366
e 9 109
e 9 325
e 10 910
e 10 382
e 10 132
e 10 831
e 10 412
e 11 523
e 11 149
e 11 313
e 11 100
e 11 779
e 11 299
e 11 352
e 12 190
e 12 727
e 13 369
e 13 219
e 13 363
e 13 32
e 13 489
e 14 294
e 14 690
e 14 598
e 14 902
e 15 174
e 15 352
e 15 196
e 15 297
e 15 334
e 15 195
e 16 45
e 16 121
e 16 718
e 16 695
e 16 536
e 16 197
e 16 904
e 17 31
e 17 184
e 17 95
e 17 407
e 18 316
e 18 661
e 18 404
e 18 823
e 20 789
e 20 616
e 20 705
e 21 468
e 21 955
e 21 828
e 21 294
e 21 842
e 21 594
e 21 591
e 22 911
e 22 294
e 22 535
e 22 697
e 22 958
e 22 896
e 22 919
e 23 881
e 23 233
e 23 123
e 25 48
e 25 404
e 25 719
e 25 932
e 25 152
e 25 241
e 25 248
e 25 657
e 26 87
e 26 584
e 26 692
e 26 202
e 28 924
e 28 130
e 28 182
e 28 427
e 28 119
e 28 127
e 30 877
e 30 329
e 30 218
e 31 346
e 31 817
e 31 299
e 31 273
e 31 850
e 31 800
e 31 352
e 32 773
e 32 135
e 32 248
e 32 508
e 32 571
e 33 863
e 33 800
e 33 698
e 33 602
e 33 177
e 33 930
e 35 434
e 35 872
e 35 78
e 35 769
e 35 371
e 36 465
e 36 598
e 36 344
e 36 936
e 36 213
e 37 916
e 37 686
e 37 662
e 37 290
e 38 715
e 38 986
e 38 367
e 38 80
e 38 173
e 38 225
e 38 654
e 40 52
e 40 41
e 40 113
e 40 538
e 40 100
e 40 958
e 40 427
e 41 544
e 41 386
e 41 951
e 41 794
e 41 512
e 42 596
e 42 300
e 42 841
e 42 652
e 43 789
e 43 266
e 43 133
e 43 982
e 43 617
e 44 283
e 44 60
e 44 374
e 44 834
e 44 793
e 45 642
e 45 940
e 45 736
e 45 66
e 45 661
e 45 490
e 47 138
e 47 352
e 47 911
e 48 810
e 48 357
e 49 786
e 49 300
e 49 781
e 49 823
e 50 669
e 50 57
e 50 379
e 50 285
e 50 121
e 51 116
e 51 377
e 51 578
e 51 227
e 51 798
e 52 351
e 52 855
e 56 126
e 56 390
e 56 644
e 56 626
e 56 202
e 56 875
e 57 428
e 57 485
e 57 935
e 57 303
e 58 997
e 58 306
e 58 826
e 58 920
e 58 413
e 58 112
e 59 148
e 59 982
e 59 129
e 60 986
e 60 301
e 60 553
e 60 89
e 62 843
e 62 235
e 62 379
e 62 669
e 64 102
e 64 317
e 64 294
e 66 842
e 66 664
e 66 976
e 66 306
e 66 182
e 67 219
e 67 664
e 67 350
e 68 925
e 68 949
e 68 677
e 68 653
e 69 496
e 69 96
e 69 281
e 69 488
e 71 308
e 71 85
e 71 583
e 71 346
e 71 509
e 71 881
e 71 434
e 71 352
e 71 457
e 72 950
e 72 962
e 72 492
e 72 235
e 73 952
e 73 863
e 73 484
e 73 581
e 76 431
e 76 163
e 76 534
e 76 967
e 76 362
e 76 975
e 77 752
e 77 962
e 77 510
e 77 276
e 78 138
e 78 868
e 78 353
e 79 426
e 79 933
e 79 330
e 80 138
e 80 700
e 80 300
e 81 585
e 81 507
e 81 701
e 81 446
e 82 178
e 82 652
e 82 772
e 82 154
e 82 566
e 82 708
e 83 553
e 83 241
e 83 178
e 83 725
e 83 312
e 83 379
e 84 397
e 84 166
e 84 280
e 84 814
e 84 964
e 84 308
e 85 535
e 85 724
e 85 738
e 87 97
e 87 118
e 88 187
e 88 723
e 88 512
e 89 402
e 89 686
e 89 333
e 89 804
e 89 246
e 90 669
e 90 683
e 90 377
e 90 334
e 90 936
e 90 805
e 91 201
e 91 598
e 91 642
e 91 853
e 91 184
e 91 137
e 91 449
e 91 292
e 93 398
e 93 769
e 93 347
e 93 380
e 93 303
e 95 713
e 95 818
e 96 763
e 96 297
e 96 336
e 96 883
e 97 280
e 97 633
e 97 478
e 97 535
e 98 531
e 98 197
e 98 991
e 98 221
e 99 653
e 99 104
e 99 306
e 99 135
e 100 549
e 100 680
e 101 943
e 101 800
e 101 773
e 101 365
e 101 788
e 101 636
e 102 156
e 102 737
e 102 708
e 102 715
e 102 762
e 103 432
e 103 871
e 103 847
e 104 737
e 104 344
e 104 430
e 106 465
e 106 264
e 106 237
e 107 888
e 107 540
e 107 985
e 107 336
e 107 706
e 107 330
e 108 737
e 108 396
e 108 386
e 109 235
e 109 604
e 109 544
e 109 613
e 109 867
e 109 302
e 110 457
e 110 993
e 110 245
e 111 375
e 111 521
e 111 433
e 111 367
e 111 321
e 111 431
e 112 566
e 112 525
e 112 420
e 113 313
e 113 974
e 116 343
e 116 209
e 116 607
e 116 474
e 116 210
e 117 396
e 117 905
e 117 165
e 118 249
e 118 893
e 119 583
e 119 725
e 119 436
e 121 896
e 121 516
e 121 303
e 122 603
e 122 634
e 122 966
e 123 624
e 123 742
e 124 332
e 124 497
e 124 772
e 124 702
e 124 836
e 125 315
e 125 379
e 125 857
e 125 221
e 125 302
e 126 308
e 126 779
e 126 484
e 126 395
e 126 759
e 126 135
e 126 794
e 126 168
e 127 737
e 127 451
e 127 970
e 127 376
e 127 997
e 127 708
e 127 403
e 128 750
e 128 532
e 128 245
e 128 298
e 128 365
e 128 455
e 128 178
e 129 701
e 129 159
e 129 929
e 129 210
e 130 465
e 130 256
e 130 253
e 130 544
e 130 735
e 131 643
e 131 327
e 131 827
e 132 594
e 132 889
e 132 368
e 132 506
e 133 149
e 133 313
e 133 297
e 133 624
e 133 701
e 133 876
e 134 357
e 134 429
e 134 775
e 134 194
e 134 798
e 134 408
e 134 331
e 135 626
e 135 405
e 135 587
e 135 431
e 136 406
e 136 728
e 136 356
e 136 252
e 136 246
e 136 381
e 136 764
e 136 794
e 137 745
e 137 462
e 137 905
e 137 913
e 137 756
e 138 674
e 138 975
e 138 401
e 139 165
e 139 329
e 139 656
e 140 963
e 140 325
e 140 908
e 140 921
e 141 317
e 141 163
e 141 307
e 142 802
e 142 375
e 142 962
e 146 538
e 146 923
e 146 718
e 146 882
e 147 907
e 147 664
e 147 254
e 148 380
e 148 235
e 148 616
e 148 695
e 148 419
e 149 914
e 149 225
e 149 577
e 149 681
e 150 884
e 150 616
e 150 241
e 150 457
e 150 268
e 150 904
e 150 507
e 150 347
e 150 773
e 152 911
e 152 561
e 152 709
e 152 343
e 153 642
e 153 644
e 153 940
e 153 479
e 154 425
e 154 997
e 156 209
e 156 896
e 157 416
e 157 591
e 157 671
e 157 364
e 157 407
e 159 423
e 159 812
e 159 603
e 163 683
e 163 164
e 164 896
e 164 438
e 164 485
e 164 268
e 165 263
e 165 455
e 165 680
e 165 700
e 166 730
e 166 335
e 166 545
e 167 656
e 167 493
e 167 179
e 167 194
e 167 699
e 167 462
e 167 225
e 168 634
e 168 373
e 168 966
e 168 662
e 170 685
e 170 673
e 170 453
e 170 543
e 170 953
e 170 727
e 170 869
e 171 991
e 171 986
e 171 703
e 171 312
e 171 895
e 171 317
e 171 428
e 173 750
e 173 213
e 173 633
e 173 814
e 174 359
e 174 739
e 177 823
e 177 377
e 178 201
e 178 980
e 178 399
e 178 188
e 179 564
e 179 845
e 179 671
e 182 921
e 182 602
e 182 281
e 183 516
e 183 721
e 183 617
e 183 373
e 184 531
e 184 446
e 184 856
e 185 486
e 185 935
e 185 520
e 186 429
e 186 403
e 186 394
e 187 294
e 187 274
e 187 828
e 188 582
e 188 474
e 188 871
e 188 656
e 190 606
e 190 451
e 190 642
e 190 875
e 190 581
e 190 514
e 190 658
e 191 396
e 191 382
e 191 725
e 192 914
e 192 881
e 192 725
e 194 688
e 195 756
e 195 890
e 195 941
e 196 489
e 196 703
e 196 223
e 196 343
e 197 915
e 197 723
e 197 872
e 197 423
e 197 869
e 198 260
e 198 818
e 198 501
e 198 345
e 199 248
e 199 829
e 199 538
e 201 239
e 201 562
e 202 451
e 202 388
e 202 591
e 204 636
e 204 656
e 204 462
e 204 833
e 204 456
e 206 400
e 206 207
e 206 256
e 206 396
e 206 842
e 206 510
e 207 644
e 207 571
e 207 766
e 207 478
e 209 210
e 210 501
e 210 515
e 210 452
e 211 988
e 211 306
e 211 901
e 211 954
e 212 448
e 212 814
e 212 345
e 213 986
e 213 453
e 213 445
e 213 904
e 213 367
e 217 335
e 217 828
e 217 583
e 217 532
e 218 994
e 218 539
e 219 743
e 219 604
e 219 519
e 219 868
e 219 400
e 220 979
e 220 357
e 220 827
e 221 924
e 221 366
e 221 768
e 221 354
e 221 353
e 221 774
e 222 865
e 222 394
e 222 727
e 223 725
e 223 913
e 223 385
e 223 412
e 225 288
e 225 357
e 227 485
e 227 838
e 227 238
e 229 235
e 229 877
e 229 960
e 230 339
e 230 920
e 230 267
e 232 621
e 232 656
e 232 732
e 232 613
e 232 450
e 232 866
e 233 514
e 233 684
e 234 683
e 234 642
e 234 352
e 235 757
e 235 698
e 235 445
e 235 282
e 237 863
e 237 919
e 238 245
e 238 369
e 238 808
e 239 391
e 239 986
e 239 854
e 239 945
e 239 299
e 239 418
e 239 718
e 240 441
e 240 988
e 240 800
e 241 733
e 241 962
e 241 627
e 241 367
e 245 920
e 245 997
e 245 764
e 246 341
e 246 689
e 248 984
e 249 433
e 249 789
e 249 468
e 249 448
e 250 530
e 250 974
e 250 970
e 250 424
e 250 408
e 250 978
e 252 288
e 252 789
e 252 536
e 252 327
e 252 446
e 253 961
e 253 674
e 254 366
e 254 716
e 254 256
e 254 760
e 256 364
e 257 333
e 257 923
e 257 970
e 257 721
e 257 933
e 260 589
e 260 752
e 260 779
e 260 628
e 261 955
e 261 729
e 261 368
e 261 813
e 263 757
e 263 451
e 264 607
e 264 325
e 264 321
e 265 474
e 265 381
e 265 458
e 265 651
e 265 496
e 266 680
e 266 386
e 267 333
e 267 805
e 267 392
e 268 933
e 268 581
e 268 347
e 268 306
e 271 497
e 271 675
e 271 549
e 271 519
e 272 628
e 272 495
e 272 805
e 273 397
e 273 898
e 274 703
e 274 405
e 274 745
e 275 971
e 275 439
e 275 715
e 276 980
e 276 381
e 277 302
e 277 880
e 280 836
e 280 573
e 280 863
e 280 654
e 280 878
e 281 567
e 281 921
e 281 708
e 282 522
e 282 494
e 283 457
e 283 964
e 283 664
e 285 505
e 285 984
e 285 345
e 288 437
e 288 883
e 288 534
e 288 929
e 290 873
e 290 297
e 290 628
e 290 546
e 292 780
e 292 386
e 292 689
e 292 398
e 292 880
e 292 759
e 292 484
e 292 970
e 293 510
e 293 963
e 293 407
e 294 788
e 294 787
e 294 675
e 294 594
e 297 890
e 297 877
e 297 418
e 298 384
e 298 421
e 299 362
e 300 450
e 301 512
e 301 890
e 301 642
e 302 497
e 303 633
e 303 536
e 303 738
e 304 824
e 304 814
e 304 438
e 304 877
e 306 868
e 306 766
e 306 871
e 307 800
e 307 344
e 307 562
e 309 866
e 309 388
e 309 445
e 311 369
e 311 682
e 311 893
e 311 376
e 311 490
e 311 843
e 311 352
e 312 413
e 312 785
e 313 600
e 313 409
e 313 903
e 315 345
e 315 480
e 315 482
e 315 979
e 315 988
e 315 706
e 315 873
e 316 404
e 316 814
e 317 321
e 317 376
e 317 485
e 317 371
e 317 871
e 317 647
e 317 375
e 320 596
e 320 777
e 320 742
e 320 493
e 321 801
e 321 447
e 321 495
e 322 518
e 322 478
e 322 344
e 324 399
e 324 828
e 324 488
e 324 743
e 325 746
e 325 827
e 326 745
e 326 795
e 326 531
e 327 949
e 327 470
e 327 534
e 328 482
e 328 434
e 328 334
e 328 377
e 329 381
e 329 756
e 329 648
e 329 651
e 329 353
e 329 701
e 329 910
e 329 951
e 329 603
e 330 677
e 330 664
e 330 881
e 331 748
e 331 701
e 331 818
e 332 529
e 332 340
e 333 668
e 333 485
e 334 476
e 334 856
e 334 777
e 334 463
e 335 347
e 335 797
e 336 577
e 336 589
e 337 975
e 337 546
e 337 775
e 338 358
e 338 739
e 338 587
e 338 847
e 339 571
e 339 470
e 339 407
e 340 629
e 340 778
e 340 866
e 340 728
e 340 781
e 341 450
e 341 627
e 343 346
e 343 901
e 343 886
e 344 421
e 344 892
e 345 595
e 345 976
e 346 412
e 346 689
e 346 629
e 347 594
e 347 546
e 350 741
e 350 689
e 350 914
e 351 935
e 351 398
e 351 489
e 352 949
e 352 652
e 352 662
e 352 457
e 353 776
e 353 470
e 353 848
e 353 763
e 353 941
e 354 392
e 354 571
e 356 557
e 356 493
e 356 566
e 356 529
e 356 540
e 357 535
e 357 485
e 358 671
e 358 914
e 358 882
e 358 508
e 359 401
e 359 855
e 359 998
e 359 407
e 361 744
e 361 774
e 361 589
e 362 395
e 362 813
e 363 577
e 363 994
e 363 634
e 364 564
e 364 703
e 364 452
e 364 369
e 365 980
e 366 415
e 366 980
e 366 492
e 366 426
e 366 579
e 366 889
e 368 794
e 368 525
e 368 985
e 369 800
e 369 394
e 369 808
e 369 423
e 370 606
e 370 817
e 370 539
e 371 907
e 371 939
e 373 417
e 373 625
e 373 667
e 374 682
e 374 797
e 374 604
e 375 860
e 375 628
e 376 652
e 376 826
e 377 833
e 377 402
e 377 750
e 377 766
e 379 497
e 380 675
e 380 871
e 381 452
e 382 706
e 382 390
e 384 595
e 384 555
e 384 686
e 384 991
e 385 756
e 385 510
e 385 984
e 386 993
e 386 790
e 386 738
e 388 946
e 388 680
e 388 467
e 390 843
e 390 772
e 391 412
e 391 664
e 391 561
e 392 743
e 392 695
e 392 678
e 394 476
e 394 418
e 394 730
e 394 621
e 395 424
e 395 945
e 396 639
e 396 625
e 396 855
e 396 966
e 396 522
e 396 923
e 397 688
e 398 596
e 399 723
e 399 492
e 400 795
e 400 520
e 400 560
e 400 517
e 401 488
e 401 857
e 402 407
e 402 975
e 403 943
e 403 596
e 405 636
e 405 964
e 406 708
e 406 546
e 407 530
e 408 700
e 408 952
e 409 793
e 409 913
e 410 579
e 410 916
e 410 853
e 410 986
e 410 895
e 413 764
e 413 633
e 415 596
e 415 660
e 416 660
e 416 540
e 417 878
e 417 519
e 417 441
e 418 700
e 418 823
e 418 688
e 418 883
e 419 716
e 419 902
e 420 796
e 420 756
e 420 947
e 420 857
e 420 603
e 420 681
e 421 470
e 421 479
e 421 522
e 421 458
e 423 961
e 423 831
e 423 785
e 423 660
e 424 752
e 425 431
e 425 571
e 426 962
e 426 699
e 427 886
e 428 600
e 428 911
e 429 871
e 429 892
e 430 665
e 430 966
e 430 892
e 431 495
e 431 955
e 431 648
e 431 684
e 431 908
e 431 907
e 432 802
e 433 579
e 433 933
e 433 934
e 434 847
e 434 783
e 436 984
e 436 823
e 436 741
e 437 448
e 437 624
e 437 684
e 437 763
e 438 639
e 438 951
e 439 518
e 439 522
e 439 730
e 439 744
e 439 549
e 439 515
e 441 509
e 441 926
e 441 888
e 443 518
e 443 929
e 443 690
e 445 974
e 445 760
e 445 926
e 446 598
e 447 578
e 447 813
e 448 673
e 448 981
e 448 546
e 448 893
e 449 930
e 449 934
e 450 977
e 452 713
e 453 800
e 453 603
e 453 868
e 453 945
e 455 777
e 455 930
e 455 783
e 455 896
e 456 797
e 456 914
e 457 989
e 457 977
e 457 704
e 458 640
e 458 788
e 458 752
e 458 962
e 458 478
e 462 813
e 462 869
e 463 540
e 463 972
e 463 828
e 465 470
e 465 596
e 465 682
e 465 793
e 467 517
e 467 695
e 467 748
e 467 863
e 467 813
e 468 825
e 470 903
e 470 532
e 470 939
e 474 805
e 474 773
e 474 877
e 476 725
e 476 729
e 478 577
e 479 671
e 479 674
e 479 708
e 480 520
e 480 560
e 482 893
e 482 907
e 486 823
e 486 669
e 488 506
e 488 616
e 489 979
e 489 577
e 489 716
e 489 875
e 490 684
e 490 544
e 490 667
e 492 600
e 492 947
e 492 921
e 493 825
e 493 790
e 494 750
e 494 664
e 494 566
e 495 532
e 496 745
e 496 564
e 497 793
e 498 921
e 498 764
e 498 505
e 498 744
e 500 823
e 500 702
e 500 739
e 501 987
e 505 705
e 506 961
e 506 757
e 506 562
e 506 790
e 506 689
e 507 626
e 508 527
e 508 561
e 509 999
e 509 689
e 510 742
e 510 810
e 510 768
e 511 622
e 511 881
e 511 845
e 511 698
e 512 881
e 512 845
e 512 543
e 513 981
e 513 893
e 513 550
e 513 617
e 513 669
e 514 743
e 515 798
e 515 801
e 516 954
e 516 664
e 517 527
e 517 786
e 519 622
e 519 961
e 520 949
e 520 781
e 521 951
e 521 975
e 522 596
e 522 947
e 523 860
e 523 873
e 525 546
e 527 921
e 527 634
e 527 878
e 529 556
e 529 545
e 529 644
e 530 562
e 530 827
e 530 924
e 531 972
e 532 713
e 534 778
e 534 596
e 535 806
e 536 966
e 539 736
e 539 864
e 540 939
e 540 898
e 540 756
e 543 719
e 543 614
e 544 790
e 545 933
e 545 858
e 546 553
e 549 634
e 549 806
e 549 816
e 549 788
e 550 980
e 550 618
e 550 671
e 550 766
e 552 810
e 552 984
e 552 964
e 553 808
e 553 836
e 555 832
e 555 840
e 556 683
e 556 692
e 556 657
e 556 831
e 557 976
e 557 652
e 560 653
e 560 621
e 561 562
e 562 750
e 562 971
e 562 890
e 563 746
e 563 652
e 563 834
e 566 705
e 566 773
e 567 847
e 567 892
e 569 773
e 569 632
e 569 848
e 573 629
e 573 664
e 573 876
e 575 804
e 575 801
e 575 889
e 577 827
e 577 889
e 578 661
e 579 898
e 579 984
e 579 665
e 581 819
e 581 762
e 582 823
e 582 743
e 582 729
e 583 932
e 583 762
e 584 783
e 584 834
e 584 913
e 585 667
e 585 750
e 585 706
e 587 833
e 587 736
e 589 935
e 589 654
e 589 685
e 591 945
e 591 854
e 591 850
e 591 932
e 594 886
e 595 644
e 595 793
e 596 735
e 596 600
e 598 905
e 598 827
e 598 825
e 600 775
e 600 762
e 602 988
e 602 796
e 604 975
e 604 890
e 604 941
e 606 660
e 606 957
e 607 732
e 607 788
e 609 900
e 609 679
e 609 719
e 613 986
e 614 970
e 614 856
e 617 730
e 617 708
e 617 671
e 618 804
e 621 698
e 622 829
e 622 739
e 624 866
e 624 855
e 624 841
e 625 892
e 626 967
e 627 643
e 627 813
e 627 689
e 627 889
e 628 873
e 629 832
e 629 900
e 629 924
e 629 658
e 629 882
e 629 871
e 629 816
e 632 892
e 632 672
e 633 893
e 633 769
e 639 647
e 639 785
e 639 807
e 640 801
e 640 815
e 642 991
e 642 701
e 643 834
e 643 690
e 644 818
e 644 685
e 644 941
e 647 662
e 647 790
e 648 688
e 651 760
e 651 676
e 651 684
e 653 723
e 654 672
e 654 776
e 656 936
e 657 907
e 657 801
e 657 923
e 658 858
e 658 713
e 661 926
e 662 890
e 665 853
e 665 760
e 665 864
e 665 978
e 665 832
e 667 792
e 668 773
e 668 711
e 669 739
e 669 884
e 672 971
e 672 911
e 672 998
e 673 818
e 673 972
e 676 787
e 676 999
e 677 780
e 678 900
e 678 690
e 678 816
e 678 711
e 679 939
e 679 953
e 679 991
e 680 974
e 681 911
e 682 843
e 682 985
e 683 792
e 684 778
e 684 888
e 688 837
e 689 926
e 692 718
e 695 728
e 695 788
e 697 800
e 697 904
e 698 733
e 698 823
e 698 867
e 699 838
e 700 979
e 700 838
e 700 911
e 701 901
e 701 787
e 702 952
e 704 840
e 704 888
e 705 736
e 706 941
e 706 724
e 708 980
e 708 813
e 708 768
e 709 855
e 709 845
e 709 711
e 711 950
e 713 925
e 713 921
e 713 853
e 713 824
e 715 759
e 715 848
e 716 815
e 718 884
e 721 900
e 721 757
e 723 967
e 724 774
e 724 960
e 724 736
e 724 802
e 725 903
e 725 909
e 727 950
e 727 907
e 728 812
e 728 798
e 728 797
e 732 902
e 733 864
e 735 786
e 738 807
e 739 816
e 739 954
e 741 919
e 743 751
e 746 883
e 748 801
e 750 759
e 750 911
e 751 788
e 751 895
e 759 815
e 760 804
e 762 781
e 764 788
e 764 919
e 766 772
e 766 813
e 768 966
e 772 837
e 772 826
e 775 858
e 775 966
e 776 872
e 778 867
e 779 797
e 779 982
e 780 999
e 780 926
e 787 954
e 788 904
e 792 909
e 795 957
e 796 954
e 796 925
e 797 829
e 800 989
e 800 832
e 801 926
e 802 950
e 802 903
e 805 834
e 805 961
e 806 837
e 806 847
e 807 876
e 807 972
e 807 991
e 808 825
e 812 889
e 814 981
e 814 977
e 815 933
e 815 826
e 817 934
e 818 910
e 819 828
e 819 971
e 819 951
e 823 985
e 824 841
e 826 954
e 826 886
e 827 952
e 828 972
e 834 886
e 834 840
e 841 853
e 848 875
e 848 877
e 850 878
e 853 867
e 854 855
e 854 893
e 855 878
e 856 925
e 857 935
e 857 877
e 860 872
e 863 920
e 865 915
e 865 982
e 868 963
e 872 924
e 876 960
e 880 908
e 881 943
e 883 893
e 886 962
e 888 940
e 889 915
e 890 975
e 892 905
e 892 932
e 896 946
e 896 945
e 901 998
e 903 955
e 909 989
e 913 993
e 916 958
e 919 974
e 920 974
e 923 926
e 932 978
e 941 946
e 946 955
e 953 994
e 955 998
e 962 989
e 979 986
e 986 998
e 987 999
